objective value:                                    0
lambda[1,19]*                                       4 	(obj:0)
lambda[1,20]*                                       2 	(obj:0)
lambda[1,21]*                                       2 	(obj:0)
lambda[1,22]*                                       2 	(obj:0)
lambda[0,33]*                                       5 	(obj:0)
lambda[0,36]*                                       3 	(obj:0)
lambda[0,38]*                                       2 	(obj:0)
